param set_len = 44;
param target_sum = 9648111194;
param values := [1] 192338580 [2] 2947014 [3] 362006893 [4] 682365649 [5] 126038185 [6] 388690436 [7] 1001340863 [8] 872152739 [9] 13373062 [10] 429556025 [11] 606655394 [12] 57454970 [13] 943751088 [14] 391362068 [15] 597420900 [16] 520030182 [17] 673738584 [18] 491549761 [19] 487287019 [20] 145730478 [21] 594985454 [22] 139430071 [23] 1013103408 [24] 196781404 [25] 767154135 [26] 597849088 [27] 427576152 [28] 598675072 [29] 316242583 [30] 618159368 [31] 620260546 [32] 247115757 [33] 107000889 [34] 526921185 [35] 587159233 [36] 500913654 [37] 1537603 [38] 121090639 [39] 949253969 [40] 601381014 [41] 453345688 [42] 703487666 [43] 745884082 [44] 812510598 ;
